NAME : eil5
COMMENT : 5-city problem (Leandro)
TYPE : TSP
DIMENSION : 10
EDGE_WEIGHT_TYPE : EUC_2D
BEST_PATH : 1 7 9 8 10 6 3 2 5 4 1
NODE_COORD_SECTION
1 37 52
2 49 49
3 52 64
4 20 26
5 40 30
6 56 76
7 34 65
8 23 90
9 21 65
10 23 98
EOF
